NAME : Golden_15
COMMENT : 1345.23
TYPE : CVRP
DIMENSION : 397
EDGE_WEIGHT_TYPE : EUC_2D
CAPACITY : 1000
NODE_COORD_SECTION
1 0.00000 0.00000
2 3.00000 1.00000
3 3.00000 3.00000
4 1.00000 3.00000
5 -1.00000 3.00000
6 -3.00000 3.00000
7 -3.00000 1.00000
8 -3.00000 -1.00000
9 -3.00000 -3.00000
10 -1.00000 -3.00000
11 1.00000 -3.00000
12 3.00000 -3.00000
13 3.00000 -1.00000
14 5.00000 1.00000
15 5.00000 3.00000
16 5.00000 5.00000
17 3.00000 5.00000
18 1.00000 5.00000
19 -1.00000 5.00000
20 -3.00000 5.00000
21 -5.00000 5.00000
22 -5.00000 3.00000
23 -5.00000 1.00000
24 -5.00000 -1.00000
25 -5.00000 -3.00000
26 -5.00000 -5.00000
27 -3.00000 -5.00000
28 -1.00000 -5.00000
29 1.00000 -5.00000
30 3.00000 -5.00000
31 5.00000 -5.00000
32 5.00000 -3.00000
33 5.00000 -1.00000
34 7.00000 1.00000
35 7.00000 3.00000
36 7.00000 5.00000
37 7.00000 7.00000
38 5.00000 7.00000
39 3.00000 7.00000
40 1.00000 7.00000
41 -1.00000 7.00000
42 -3.00000 7.00000
43 -5.00000 7.00000
44 -7.00000 7.00000
45 -7.00000 5.00000
46 -7.00000 3.00000
47 -7.00000 1.00000
48 -7.00000 -1.00000
49 -7.00000 -3.00000
50 -7.00000 -5.00000
51 -7.00000 -7.00000
52 -5.00000 -7.00000
53 -3.00000 -7.00000
54 -1.00000 -7.00000
55 1.00000 -7.00000
56 3.00000 -7.00000
57 5.00000 -7.00000
58 7.00000 -7.00000
59 7.00000 -5.00000
60 7.00000 -3.00000
61 7.00000 -1.00000
62 9.00000 1.00000
63 9.00000 3.00000
64 9.00000 5.00000
65 9.00000 7.00000
66 9.00000 9.00000
67 7.00000 9.00000
68 5.00000 9.00000
69 3.00000 9.00000
70 1.00000 9.00000
71 -1.00000 9.00000
72 -3.00000 9.00000
73 -5.00000 9.00000
74 -7.00000 9.00000
75 -9.00000 9.00000
76 -9.00000 7.00000
77 -9.00000 5.00000
78 -9.00000 3.00000
79 -9.00000 1.00000
80 -9.00000 -1.00000
81 -9.00000 -3.00000
82 -9.00000 -5.00000
83 -9.00000 -7.00000
84 -9.00000 -9.00000
85 -7.00000 -9.00000
86 -5.00000 -9.00000
87 -3.00000 -9.00000
88 -1.00000 -9.00000
89 1.00000 -9.00000
90 3.00000 -9.00000
91 5.00000 -9.00000
92 7.00000 -9.00000
93 9.00000 -9.00000
94 9.00000 -7.00000
95 9.00000 -5.00000
96 9.00000 -3.00000
97 9.00000 -1.00000
98 11.00000 1.00000
99 11.00000 3.00000
100 11.00000 5.00000
101 11.00000 7.00000
102 11.00000 9.00000
103 11.00000 11.00000
104 9.00000 11.00000
105 7.00000 11.00000
106 5.00000 11.00000
107 3.00000 11.00000
108 1.00000 11.00000
109 -1.00000 11.00000
110 -3.00000 11.00000
111 -5.00000 11.00000
112 -7.00000 11.00000
113 -9.00000 11.00000
114 -11.00000 11.00000
115 -11.00000 9.00000
116 -11.00000 7.00000
117 -11.00000 5.00000
118 -11.00000 3.00000
119 -11.00000 1.00000
120 -11.00000 -1.00000
121 -11.00000 -3.00000
122 -11.00000 -5.00000
123 -11.00000 -7.00000
124 -11.00000 -9.00000
125 -11.00000 -11.00000
126 -9.00000 -11.00000
127 -7.00000 -11.00000
128 -5.00000 -11.00000
129 -3.00000 -11.00000
130 -1.00000 -11.00000
131 1.00000 -11.00000
132 3.00000 -11.00000
133 5.00000 -11.00000
134 7.00000 -11.00000
135 9.00000 -11.00000
136 11.00000 -11.00000
137 11.00000 -9.00000
138 11.00000 -7.00000
139 11.00000 -5.00000
140 11.00000 -3.00000
141 11.00000 -1.00000
142 13.00000 1.00000
143 13.00000 3.00000
144 13.00000 5.00000
145 13.00000 7.00000
146 13.00000 9.00000
147 13.00000 11.00000
148 13.00000 13.00000
149 11.00000 13.00000
150 9.00000 13.00000
151 7.00000 13.00000
152 5.00000 13.00000
153 3.00000 13.00000
154 1.00000 13.00000
155 -1.00000 13.00000
156 -3.00000 13.00000
157 -5.00000 13.00000
158 -7.00000 13.00000
159 -9.00000 13.00000
160 -11.00000 13.00000
161 -13.00000 13.00000
162 -13.00000 11.00000
163 -13.00000 9.00000
164 -13.00000 7.00000
165 -13.00000 5.00000
166 -13.00000 3.00000
167 -13.00000 1.00000
168 -13.00000 -1.00000
169 -13.00000 -3.00000
170 -13.00000 -5.00000
171 -13.00000 -7.00000
172 -13.00000 -9.00000
173 -13.00000 -11.00000
174 -13.00000 -13.00000
175 -11.00000 -13.00000
176 -9.00000 -13.00000
177 -7.00000 -13.00000
178 -5.00000 -13.00000
179 -3.00000 -13.00000
180 -1.00000 -13.00000
181 1.00000 -13.00000
182 3.00000 -13.00000
183 5.00000 -13.00000
184 7.00000 -13.00000
185 9.00000 -13.00000
186 11.00000 -13.00000
187 13.00000 -13.00000
188 13.00000 -11.00000
189 13.00000 -9.00000
190 13.00000 -7.00000
191 13.00000 -5.00000
192 13.00000 -3.00000
193 13.00000 -1.00000
194 15.00000 1.00000
195 15.00000 3.00000
196 15.00000 5.00000
197 15.00000 7.00000
198 15.00000 9.00000
199 15.00000 11.00000
200 15.00000 13.00000
201 15.00000 15.00000
202 13.00000 15.00000
203 11.00000 15.00000
204 9.00000 15.00000
205 7.00000 15.00000
206 5.00000 15.00000
207 3.00000 15.00000
208 1.00000 15.00000
209 -1.00000 15.00000
210 -3.00000 15.00000
211 -5.00000 15.00000
212 -7.00000 15.00000
213 -9.00000 15.00000
214 -11.00000 15.00000
215 -13.00000 15.00000
216 -15.00000 15.00000
217 -15.00000 13.00000
218 -15.00000 11.00000
219 -15.00000 9.00000
220 -15.00000 7.00000
221 -15.00000 5.00000
222 -15.00000 3.00000
223 -15.00000 1.00000
224 -15.00000 -1.00000
225 -15.00000 -3.00000
226 -15.00000 -5.00000
227 -15.00000 -7.00000
228 -15.00000 -9.00000
229 -15.00000 -11.00000
230 -15.00000 -13.00000
231 -15.00000 -15.00000
232 -13.00000 -15.00000
233 -11.00000 -15.00000
234 -9.00000 -15.00000
235 -7.00000 -15.00000
236 -5.00000 -15.00000
237 -3.00000 -15.00000
238 -1.00000 -15.00000
239 1.00000 -15.00000
240 3.00000 -15.00000
241 5.00000 -15.00000
242 7.00000 -15.00000
243 9.00000 -15.00000
244 11.00000 -15.00000
245 13.00000 -15.00000
246 15.00000 -15.00000
247 15.00000 -13.00000
248 15.00000 -11.00000
249 15.00000 -9.00000
250 15.00000 -7.00000
251 15.00000 -5.00000
252 15.00000 -3.00000
253 15.00000 -1.00000
254 17.00000 1.00000
255 17.00000 3.00000
256 17.00000 5.00000
257 17.00000 7.00000
258 17.00000 9.00000
259 17.00000 11.00000
260 17.00000 13.00000
261 17.00000 15.00000
262 17.00000 17.00000
263 15.00000 17.00000
264 13.00000 17.00000
265 11.00000 17.00000
266 9.00000 17.00000
267 7.00000 17.00000
268 5.00000 17.00000
269 3.00000 17.00000
270 1.00000 17.00000
271 -1.00000 17.00000
272 -3.00000 17.00000
273 -5.00000 17.00000
274 -7.00000 17.00000
275 -9.00000 17.00000
276 -11.00000 17.00000
277 -13.00000 17.00000
278 -15.00000 17.00000
279 -17.00000 17.00000
280 -17.00000 15.00000
281 -17.00000 13.00000
282 -17.00000 11.00000
283 -17.00000 9.00000
284 -17.00000 7.00000
285 -17.00000 5.00000
286 -17.00000 3.00000
287 -17.00000 1.00000
288 -17.00000 -1.00000
289 -17.00000 -3.00000
290 -17.00000 -5.00000
291 -17.00000 -7.00000
292 -17.00000 -9.00000
293 -17.00000 -11.00000
294 -17.00000 -13.00000
295 -17.00000 -15.00000
296 -17.00000 -17.00000
297 -15.00000 -17.00000
298 -13.00000 -17.00000
299 -11.00000 -17.00000
300 -9.00000 -17.00000
301 -7.00000 -17.00000
302 -5.00000 -17.00000
303 -3.00000 -17.00000
304 -1.00000 -17.00000
305 1.00000 -17.00000
306 3.00000 -17.00000
307 5.00000 -17.00000
308 7.00000 -17.00000
309 9.00000 -17.00000
310 11.00000 -17.00000
311 13.00000 -17.00000
312 15.00000 -17.00000
313 17.00000 -17.00000
314 17.00000 -15.00000
315 17.00000 -13.00000
316 17.00000 -11.00000
317 17.00000 -9.00000
318 17.00000 -7.00000
319 17.00000 -5.00000
320 17.00000 -3.00000
321 17.00000 -1.00000
322 19.00000 1.00000
323 19.00000 3.00000
324 19.00000 5.00000
325 19.00000 7.00000
326 19.00000 9.00000
327 19.00000 11.00000
328 19.00000 13.00000
329 19.00000 15.00000
330 19.00000 17.00000
331 19.00000 19.00000
332 17.00000 19.00000
333 15.00000 19.00000
334 13.00000 19.00000
335 11.00000 19.00000
336 9.00000 19.00000
337 7.00000 19.00000
338 5.00000 19.00000
339 3.00000 19.00000
340 1.00000 19.00000
341 -1.00000 19.00000
342 -3.00000 19.00000
343 -5.00000 19.00000
344 -7.00000 19.00000
345 -9.00000 19.00000
346 -11.00000 19.00000
347 -13.00000 19.00000
348 -15.00000 19.00000
349 -17.00000 19.00000
350 -19.00000 19.00000
351 -19.00000 17.00000
352 -19.00000 15.00000
353 -19.00000 13.00000
354 -19.00000 11.00000
355 -19.00000 9.00000
356 -19.00000 7.00000
357 -19.00000 5.00000
358 -19.00000 3.00000
359 -19.00000 1.00000
360 -19.00000 -1.00000
361 -19.00000 -3.00000
362 -19.00000 -5.00000
363 -19.00000 -7.00000
364 -19.00000 -9.00000
365 -19.00000 -11.00000
366 -19.00000 -13.00000
367 -19.00000 -15.00000
368 -19.00000 -17.00000
369 -19.00000 -19.00000
370 -17.00000 -19.00000
371 -15.00000 -19.00000
372 -13.00000 -19.00000
373 -11.00000 -19.00000
374 -9.00000 -19.00000
375 -7.00000 -19.00000
376 -5.00000 -19.00000
377 -3.00000 -19.00000
378 -1.00000 -19.00000
379 1.00000 -19.00000
380 3.00000 -19.00000
381 5.00000 -19.00000
382 7.00000 -19.00000
383 9.00000 -19.00000
384 11.00000 -19.00000
385 13.00000 -19.00000
386 15.00000 -19.00000
387 17.00000 -19.00000
388 19.00000 -19.00000
389 19.00000 -17.00000
390 19.00000 -15.00000
391 19.00000 -13.00000
392 19.00000 -11.00000
393 19.00000 -9.00000
394 19.00000 -7.00000
395 19.00000 -5.00000
396 19.00000 -3.00000
397 19.00000 -1.00000
DEMAND_SECTION
1 0
2 300
3 300
4 300
5 300
6 300
7 300
8 300
9 300
10 300
11 300
12 300
13 300
14 180
15 180
16 180
17 180
18 180
19 180
20 180
21 180
22 180
23 180
24 180
25 180
26 180
27 180
28 180
29 180
30 180
31 180
32 180
33 180
34 128
35 128
36 128
37 128
38 128
39 128
40 128
41 128
42 128
43 128
44 128
45 128
46 128
47 128
48 128
49 128
50 128
51 128
52 128
53 128
54 128
55 128
56 128
57 128
58 128
59 128
60 128
61 128
62 100
63 100
64 100
65 100
66 100
67 100
68 100
69 100
70 100
71 100
72 100
73 100
74 100
75 100
76 100
77 100
78 100
79 100
80 100
81 100
82 100
83 100
84 100
85 100
86 100
87 100
88 100
89 100
90 100
91 100
92 100
93 100
94 100
95 100
96 100
97 100
98 81
99 81
100 81
101 81
102 81
103 81
104 81
105 81
106 81
107 81
108 81
109 81
110 81
111 81
112 81
113 81
114 81
115 81
116 81
117 81
118 81
119 81
120 81
121 81
122 81
123 81
124 81
125 81
126 81
127 81
128 81
129 81
130 81
131 81
132 81
133 81
134 81
135 81
136 81
137 81
138 81
139 81
140 81
141 81
142 69
143 69
144 69
145 69
146 69
147 69
148 69
149 69
150 69
151 69
152 69
153 69
154 69
155 69
156 69
157 69
158 69
159 69
160 69
161 69
162 69
163 69
164 69
165 69
166 69
167 69
168 69
169 69
170 69
171 69
172 69
173 69
174 69
175 69
176 69
177 69
178 69
179 69
180 69
181 69
182 69
183 69
184 69
185 69
186 69
187 69
188 69
189 69
190 69
191 69
192 69
193 69
194 60
195 60
196 60
197 60
198 60
199 60
200 60
201 60
202 60
203 60
204 60
205 60
206 60
207 60
208 60
209 60
210 60
211 60
212 60
213 60
214 60
215 60
216 60
217 60
218 60
219 60
220 60
221 60
222 60
223 60
224 60
225 60
226 60
227 60
228 60
229 60
230 60
231 60
232 60
233 60
234 60
235 60
236 60
237 60
238 60
239 60
240 60
241 60
242 60
243 60
244 60
245 60
246 60
247 60
248 60
249 60
250 60
251 60
252 60
253 60
254 52
255 52
256 52
257 52
258 52
259 52
260 52
261 52
262 52
263 52
264 52
265 52
266 52
267 52
268 52
269 52
270 52
271 52
272 52
273 52
274 52
275 52
276 52
277 52
278 52
279 52
280 52
281 52
282 52
283 52
284 52
285 52
286 52
287 52
288 52
289 52
290 52
291 52
292 52
293 52
294 52
295 52
296 52
297 52
298 52
299 52
300 52
301 52
302 52
303 52
304 52
305 52
306 52
307 52
308 52
309 52
310 52
311 52
312 52
313 52
314 52
315 52
316 52
317 52
318 52
319 52
320 52
321 52
322 47
323 47
324 47
325 47
326 47
327 47
328 47
329 47
330 47
331 47
332 47
333 47
334 47
335 47
336 47
337 47
338 47
339 47
340 47
341 47
342 47
343 47
344 47
345 47
346 47
347 47
348 47
349 47
350 47
351 47
352 47
353 47
354 47
355 47
356 47
357 47
358 47
359 47
360 47
361 47
362 47
363 47
364 47
365 47
366 47
367 47
368 47
369 47
370 47
371 47
372 47
373 47
374 47
375 47
376 47
377 47
378 47
379 47
380 47
381 47
382 47
383 47
384 47
385 47
386 47
387 47
388 47
389 47
390 47
391 47
392 47
393 47
394 47
395 47
396 47
397 47
DEPOT_SECTION
1
-1
EOF
